c colouring generated by benchmark framework
p edge 1000 449449
v 1 121
v 2 120
v 3 0
v 4 55
v 5 285
v 6 245
v 7 229
v 8 190
v 9 56
v 10 127
v 11 160
v 12 207
v 13 133
v 14 57
v 15 23
v 16 50
v 17 91
v 18 69
v 19 225
v 20 308
v 21 106
v 22 266
v 23 30
v 24 20
v 25 24
v 26 240
v 27 111
v 28 216
v 29 56
v 30 186
v 31 183
v 32 261
v 33 65
v 34 248
v 35 223
v 36 20
v 37 141
v 38 167
v 39 18
v 40 310
v 41 256
v 42 270
v 43 197
v 44 60
v 45 300
v 46 178
v 47 167
v 48 226
v 49 193
v 50 151
v 51 109
v 52 328
v 53 74
v 54 39
v 55 313
v 56 207
v 57 117
v 58 157
v 59 254
v 60 90
v 61 129
v 62 40
v 63 61
v 64 128
v 65 135
v 66 84
v 67 325
v 68 235
v 69 130
v 70 93
v 71 85
v 72 180
v 73 184
v 74 72
v 75 223
v 76 274
v 77 105
v 78 10
v 79 21
v 80 212
v 81 342
v 82 155
v 83 203
v 84 110
v 85 0
v 86 30
v 87 210
v 88 54
v 89 238
v 90 164
v 91 224
v 92 183
v 93 83
v 94 216
v 95 164
v 96 31
v 97 207
v 98 309
v 99 148
v 100 258
v 101 345
v 102 179
v 103 7
v 104 65
v 105 104
v 106 263
v 107 48
v 108 234
v 109 139
v 110 55
v 111 243
v 112 97
v 113 106
v 114 264
v 115 47
v 116 127
v 117 132
v 118 198
v 119 118
v 120 325
v 121 156
v 122 219
v 123 144
v 124 51
v 125 196
v 126 172
v 127 272
v 128 22
v 129 194
v 130 14
v 131 125
v 132 245
v 133 62
v 134 219
v 135 68
v 136 177
v 137 55
v 138 41
v 139 234
v 140 3
v 141 125
v 142 100
v 143 259
v 144 305
v 145 119
v 146 122
v 147 333
v 148 24
v 149 72
v 150 255
v 151 218
v 152 297
v 153 86
v 154 140
v 155 139
v 156 128
v 157 89
v 158 11
v 159 17
v 160 3
v 161 105
v 162 45
v 163 237
v 164 338
v 165 292
v 166 116
v 167 314
v 168 77
v 169 47
v 170 106
v 171 123
v 172 262
v 173 2
v 174 96
v 175 104
v 176 88
v 177 11
v 178 222
v 179 24
v 180 68
v 181 208
v 182 179
v 183 312
v 184 171
v 185 62
v 186 158
v 187 205
v 188 117
v 189 275
v 190 73
v 191 3
v 192 126
v 193 172
v 194 76
v 195 157
v 196 37
v 197 43
v 198 82
v 199 327
v 200 253
v 201 112
v 202 121
v 203 192
v 204 316
v 205 49
v 206 268
v 207 202
v 208 70
v 209 190
v 210 301
v 211 313
v 212 306
v 213 80
v 214 268
v 215 187
v 216 166
v 217 124
v 218 136
v 219 204
v 220 74
v 221 142
v 222 137
v 223 168
v 224 98
v 225 222
v 226 197
v 227 267
v 228 125
v 229 252
v 230 16
v 231 64
v 232 101
v 233 188
v 234 149
v 235 213
v 236 2
v 237 24
v 238 17
v 239 7
v 240 317
v 241 115
v 242 196
v 243 2
v 244 288
v 245 271
v 246 195
v 247 229
v 248 108
v 249 19
v 250 278
v 251 107
v 252 122
v 253 52
v 254 202
v 255 311
v 256 147
v 257 23
v 258 342
v 259 197
v 260 112
v 261 136
v 262 18
v 263 324
v 264 241
v 265 143
v 266 247
v 267 199
v 268 309
v 269 13
v 270 52
v 271 267
v 272 297
v 273 9
v 274 42
v 275 10
v 276 138
v 277 214
v 278 248
v 279 160
v 280 52
v 281 19
v 282 323
v 283 192
v 284 241
v 285 29
v 286 4
v 287 135
v 288 181
v 289 257
v 290 71
v 291 231
v 292 311
v 293 119
v 294 174
v 295 32
v 296 211
v 297 154
v 298 130
v 299 222
v 300 209
v 301 20
v 302 305
v 303 126
v 304 102
v 305 233
v 306 270
v 307 132
v 308 43
v 309 169
v 310 138
v 311 176
v 312 134
v 313 219
v 314 167
v 315 187
v 316 280
v 317 25
v 318 336
v 319 104
v 320 162
v 321 329
v 322 264
v 323 236
v 324 289
v 325 247
v 326 113
v 327 329
v 328 10
v 329 252
v 330 108
v 331 139
v 332 40
v 333 60
v 334 165
v 335 232
v 336 179
v 337 326
v 338 143
v 339 341
v 340 320
v 341 334
v 342 303
v 343 330
v 344 15
v 345 284
v 346 180
v 347 112
v 348 11
v 349 286
v 350 153
v 351 185
v 352 131
v 353 270
v 354 207
v 355 4
v 356 115
v 357 324
v 358 96
v 359 273
v 360 86
v 361 29
v 362 70
v 363 235
v 364 92
v 365 168
v 366 236
v 367 300
v 368 285
v 369 34
v 370 144
v 371 181
v 372 206
v 373 278
v 374 137
v 375 152
v 376 170
v 377 229
v 378 273
v 379 36
v 380 113
v 381 120
v 382 39
v 383 69
v 384 64
v 385 1
v 386 32
v 387 245
v 388 85
v 389 142
v 390 33
v 391 201
v 392 247
v 393 187
v 394 220
v 395 238
v 396 94
v 397 169
v 398 246
v 399 244
v 400 126
v 401 121
v 402 51
v 403 63
v 404 315
v 405 182
v 406 279
v 407 81
v 408 343
v 409 27
v 410 201
v 411 182
v 412 332
v 413 153
v 414 18
v 415 175
v 416 198
v 417 95
v 418 5
v 419 191
v 420 16
v 421 117
v 422 306
v 423 148
v 424 304
v 425 261
v 426 53
v 427 104
v 428 254
v 429 177
v 430 170
v 431 233
v 432 170
v 433 302
v 434 175
v 435 103
v 436 147
v 437 87
v 438 243
v 439 6
v 440 293
v 441 103
v 442 72
v 443 40
v 444 2
v 445 176
v 446 46
v 447 151
v 448 118
v 449 272
v 450 81
v 451 123
v 452 269
v 453 250
v 454 53
v 455 282
v 456 61
v 457 215
v 458 178
v 459 256
v 460 83
v 461 295
v 462 35
v 463 95
v 464 139
v 465 303
v 466 70
v 467 105
v 468 35
v 469 9
v 470 303
v 471 134
v 472 153
v 473 134
v 474 199
v 475 26
v 476 240
v 477 224
v 478 154
v 479 108
v 480 16
v 481 78
v 482 173
v 483 244
v 484 16
v 485 249
v 486 87
v 487 198
v 488 258
v 489 298
v 490 13
v 491 38
v 492 59
v 493 242
v 494 265
v 495 10
v 496 74
v 497 73
v 498 30
v 499 169
v 500 140
v 501 85
v 502 146
v 503 257
v 504 294
v 505 107
v 506 75
v 507 113
v 508 181
v 509 192
v 510 75
v 511 129
v 512 17
v 513 201
v 514 290
v 515 145
v 516 306
v 517 217
v 518 66
v 519 21
v 520 115
v 521 44
v 522 26
v 523 193
v 524 167
v 525 250
v 526 280
v 527 18
v 528 279
v 529 210
v 530 218
v 531 289
v 532 273
v 533 251
v 534 153
v 535 48
v 536 317
v 537 51
v 538 211
v 539 12
v 540 321
v 541 123
v 542 76
v 543 14
v 544 61
v 545 210
v 546 216
v 547 152
v 548 238
v 549 152
v 550 99
v 551 208
v 552 73
v 553 163
v 554 146
v 555 145
v 556 109
v 557 205
v 558 1
v 559 78
v 560 333
v 561 312
v 562 246
v 563 213
v 564 101
v 565 175
v 566 119
v 567 200
v 568 128
v 569 236
v 570 257
v 571 166
v 572 84
v 573 144
v 574 260
v 575 5
v 576 214
v 577 241
v 578 274
v 579 59
v 580 45
v 581 8
v 582 186
v 583 6
v 584 215
v 585 102
v 586 87
v 587 124
v 588 142
v 589 155
v 590 95
v 591 301
v 592 90
v 593 217
v 594 150
v 595 39
v 596 178
v 597 344
v 598 145
v 599 25
v 600 59
v 601 81
v 602 129
v 603 91
v 604 242
v 605 314
v 606 317
v 607 287
v 608 92
v 609 189
v 610 11
v 611 120
v 612 150
v 613 136
v 614 225
v 615 309
v 616 158
v 617 284
v 618 3
v 619 45
v 620 212
v 621 214
v 622 67
v 623 41
v 624 209
v 625 13
v 626 195
v 627 53
v 628 228
v 629 38
v 630 106
v 631 66
v 632 239
v 633 42
v 634 15
v 635 225
v 636 65
v 637 296
v 638 0
v 639 79
v 640 117
v 641 50
v 642 37
v 643 70
v 644 98
v 645 41
v 646 31
v 647 204
v 648 281
v 649 32
v 650 47
v 651 137
v 652 174
v 653 96
v 654 265
v 655 276
v 656 89
v 657 29
v 658 84
v 659 21
v 660 232
v 661 107
v 662 35
v 663 42
v 664 114
v 665 28
v 666 172
v 667 100
v 668 258
v 669 319
v 670 156
v 671 221
v 672 22
v 673 272
v 674 89
v 675 22
v 676 97
v 677 54
v 678 210
v 679 112
v 680 12
v 681 68
v 682 183
v 683 38
v 684 116
v 685 189
v 686 7
v 687 302
v 688 250
v 689 172
v 690 189
v 691 49
v 692 307
v 693 133
v 694 28
v 695 62
v 696 308
v 697 306
v 698 109
v 699 80
v 700 146
v 701 158
v 702 143
v 703 184
v 704 236
v 705 141
v 706 124
v 707 103
v 708 191
v 709 147
v 710 288
v 711 94
v 712 237
v 713 8
v 714 36
v 715 63
v 716 48
v 717 133
v 718 218
v 719 240
v 720 335
v 721 292
v 722 233
v 723 327
v 724 12
v 725 249
v 726 163
v 727 14
v 728 289
v 729 29
v 730 202
v 731 105
v 732 64
v 733 115
v 734 254
v 735 249
v 736 91
v 737 184
v 738 66
v 739 226
v 740 100
v 741 27
v 742 116
v 743 67
v 744 132
v 745 79
v 746 196
v 747 204
v 748 277
v 749 283
v 750 237
v 751 39
v 752 316
v 753 156
v 754 93
v 755 294
v 756 157
v 757 221
v 758 88
v 759 328
v 760 99
v 761 230
v 762 118
v 763 26
v 764 162
v 765 248
v 766 318
v 767 151
v 768 102
v 769 276
v 770 25
v 771 274
v 772 22
v 773 251
v 774 203
v 775 33
v 776 122
v 777 74
v 778 111
v 779 211
v 780 228
v 781 234
v 782 15
v 783 255
v 784 54
v 785 160
v 786 165
v 787 114
v 788 46
v 789 264
v 790 239
v 791 86
v 792 291
v 793 223
v 794 322
v 795 224
v 796 79
v 797 71
v 798 278
v 799 203
v 800 101
v 801 110
v 802 188
v 803 161
v 804 181
v 805 159
v 806 243
v 807 97
v 808 326
v 809 263
v 810 297
v 811 296
v 812 159
v 813 23
v 814 114
v 815 49
v 816 315
v 817 137
v 818 124
v 819 231
v 820 191
v 821 286
v 822 227
v 823 265
v 824 120
v 825 246
v 826 227
v 827 150
v 828 130
v 829 251
v 830 331
v 831 140
v 832 154
v 833 266
v 834 20
v 835 52
v 836 134
v 837 310
v 838 182
v 839 82
v 840 209
v 841 111
v 842 260
v 843 90
v 844 176
v 845 127
v 846 71
v 847 47
v 848 57
v 849 200
v 850 8
v 851 260
v 852 281
v 853 88
v 854 291
v 855 57
v 856 75
v 857 58
v 858 46
v 859 319
v 860 323
v 861 161
v 862 149
v 863 318
v 864 36
v 865 99
v 866 337
v 867 159
v 868 82
v 869 220
v 870 295
v 871 32
v 872 208
v 873 63
v 874 162
v 875 262
v 876 180
v 877 197
v 878 60
v 879 43
v 880 200
v 881 83
v 882 160
v 883 135
v 884 213
v 885 188
v 886 50
v 887 298
v 888 229
v 889 277
v 890 34
v 891 47
v 892 128
v 893 217
v 894 76
v 895 290
v 896 142
v 897 235
v 898 131
v 899 206
v 900 299
v 901 263
v 902 19
v 903 166
v 904 34
v 905 206
v 906 94
v 907 282
v 908 247
v 909 100
v 910 131
v 911 283
v 912 293
v 913 44
v 914 173
v 915 80
v 916 186
v 917 174
v 918 4
v 919 242
v 920 53
v 921 77
v 922 9
v 923 339
v 924 170
v 925 215
v 926 165
v 927 56
v 928 283
v 929 239
v 930 299
v 931 268
v 932 166
v 933 41
v 934 33
v 935 151
v 936 1
v 937 271
v 938 277
v 939 58
v 940 138
v 941 58
v 942 256
v 943 199
v 944 121
v 945 287
v 946 69
v 947 259
v 948 44
v 949 31
v 950 51
v 951 194
v 952 27
v 953 42
v 954 304
v 955 171
v 956 36
v 957 98
v 958 77
v 959 37
v 960 226
v 961 212
v 962 78
v 963 138
v 964 164
v 965 185
v 966 177
v 967 26
v 968 275
v 969 205
v 970 163
v 971 173
v 972 28
v 973 56
v 974 262
v 975 92
v 976 225
v 977 67
v 978 135
v 979 311
v 980 253
v 981 332
v 982 93
v 983 190
v 984 141
v 985 230
v 986 269
v 987 5
v 988 6
v 989 291
v 990 149
v 991 155
v 992 67
v 993 185
v 994 4
v 995 220
v 996 168
v 997 62
v 998 110
v 999 45
v 1000 292
